data/lp_files/pEFS/104_5.lp
\ Model foo
\ LP format - for model browsing. Use MPS format to capture full model detail.
Minimize
  z
Subject To
 allocateEach[1]: x[1,1] + x[2,1] + x[3,1] + x[4,1] + x[5,1] + x[6,1] = 1
 allocateEach[2]: x[1,2] + x[2,2] + x[3,2] + x[4,2] + x[5,2] + x[6,2] = 1
 allocateEach[3]: x[1,3] + x[2,3] + x[3,3] + x[4,3] + x[5,3] + x[6,3] = 1
 allocateEach[4]: x[1,4] + x[2,4] + x[3,4] + x[4,4] + x[5,4] + x[6,4] = 1
 allocateAllCash: cashProportion[1] + cashProportion[2] + cashProportion[3]
   + cashProportion[4] + cashProportion[5] + cashProportion[6] = 1
 findWorstP[1,2]: z + 0.0845856711873009 cashProportion[1]
   - 0.0845856711873009 cashProportion[2] + 0.1483350720387966 x[1,1]
   + 0.2698000958637606 x[1,2] + 0.27608763075535 x[1,3]
   + 0.2211915301547918 x[1,4] - 0.1483350720387966 x[2,1]
   - 0.2698000958637606 x[2,2] - 0.27608763075535 x[2,3]
   - 0.2211915301547918 x[2,4] >= 0
 findWorstP[1,3]: z + 0.0845856711873009 cashProportion[1]
   - 0.0845856711873009 cashProportion[3] + 0.1483350720387966 x[1,1]
   + 0.2698000958637606 x[1,2] + 0.27608763075535 x[1,3]
   + 0.2211915301547918 x[1,4] - 0.1483350720387966 x[3,1]
   - 0.2698000958637606 x[3,2] - 0.27608763075535 x[3,3]
   - 0.2211915301547918 x[3,4] >= 0
 findWorstP[1,4]: z + 0.0845856711873009 cashProportion[1]
   - 0.0845856711873009 cashProportion[4] + 0.1483350720387966 x[1,1]
   + 0.2698000958637606 x[1,2] + 0.27608763075535 x[1,3]
   + 0.2211915301547918 x[1,4] - 0.1483350720387966 x[4,1]
   - 0.2698000958637606 x[4,2] - 0.27608763075535 x[4,3]
   - 0.2211915301547918 x[4,4] >= 0
 findWorstP[1,5]: z + 0.0845856711873009 cashProportion[1]
   - 0.0845856711873009 cashProportion[5] + 0.1483350720387966 x[1,1]
   + 0.2698000958637606 x[1,2] + 0.27608763075535 x[1,3]
   + 0.2211915301547918 x[1,4] - 0.1483350720387966 x[5,1]
   - 0.2698000958637606 x[5,2] - 0.27608763075535 x[5,3]
   - 0.2211915301547918 x[5,4] >= 0
 findWorstP[1,6]: z + 0.0845856711873009 cashProportion[1]
   - 0.0845856711873009 cashProportion[6] + 0.1483350720387966 x[1,1]
   + 0.2698000958637606 x[1,2] + 0.27608763075535 x[1,3]
   + 0.2211915301547918 x[1,4] - 0.1483350720387966 x[6,1]
   - 0.2698000958637606 x[6,2] - 0.27608763075535 x[6,3]
   - 0.2211915301547918 x[6,4] >= 0
 findWorstP[2,1]: z - 0.1111111111111111 cashProportion[1]
   + 0.1111111111111111 cashProportion[2] - 0.3267777777777778 x[1,1]
   - 0.2471851851851852 x[1,2] - 0.2451111111111112 x[1,3]
   - 0.0698148148148148 x[1,4] + 0.3267777777777778 x[2,1]
   + 0.2471851851851852 x[2,2] + 0.2451111111111112 x[2,3]
   + 0.0698148148148148 x[2,4] >= 0
 findWorstP[2,3]: z + 0.1111111111111111 cashProportion[2]
   - 0.1111111111111111 cashProportion[3] + 0.3267777777777778 x[2,1]
   + 0.2471851851851852 x[2,2] + 0.2451111111111112 x[2,3]
   + 0.0698148148148148 x[2,4] - 0.3267777777777778 x[3,1]
   - 0.2471851851851852 x[3,2] - 0.2451111111111112 x[3,3]
   - 0.0698148148148148 x[3,4] >= 0
 findWorstP[2,4]: z + 0.1111111111111111 cashProportion[2]
   - 0.1111111111111111 cashProportion[4] + 0.3267777777777778 x[2,1]
   + 0.2471851851851852 x[2,2] + 0.2451111111111112 x[2,3]
   + 0.0698148148148148 x[2,4] - 0.3267777777777778 x[4,1]
   - 0.2471851851851852 x[4,2] - 0.2451111111111112 x[4,3]
   - 0.0698148148148148 x[4,4] >= 0
 findWorstP[2,5]: z + 0.1111111111111111 cashProportion[2]
   - 0.1111111111111111 cashProportion[5] + 0.3267777777777778 x[2,1]
   + 0.2471851851851852 x[2,2] + 0.2451111111111112 x[2,3]
   + 0.0698148148148148 x[2,4] - 0.3267777777777778 x[5,1]
   - 0.2471851851851852 x[5,2] - 0.2451111111111112 x[5,3]
   - 0.0698148148148148 x[5,4] >= 0
 findWorstP[2,6]: z + 0.1111111111111111 cashProportion[2]
   - 0.1111111111111111 cashProportion[6] + 0.3267777777777778 x[2,1]
   + 0.2471851851851852 x[2,2] + 0.2451111111111112 x[2,3]
   + 0.0698148148148148 x[2,4] - 0.3267777777777778 x[6,1]
   - 0.2471851851851852 x[6,2] - 0.2451111111111112 x[6,3]
   - 0.0698148148148148 x[6,4] >= 0
 findWorstP[3,1]: z - 0.1033627342888644 cashProportion[1]
   + 0.1033627342888644 cashProportion[3] - 0.2560294928335171 x[1,1]
   - 0.1788519845644983 x[1,2] - 0.1652425578831312 x[1,3]
   - 0.2965132304299889 x[1,4] + 0.2560294928335171 x[3,1]
   + 0.1788519845644983 x[3,2] + 0.1652425578831312 x[3,3]
   + 0.2965132304299889 x[3,4] >= 0
 findWorstP[3,2]: z - 0.1033627342888644 cashProportion[2]
   + 0.1033627342888644 cashProportion[3] - 0.2560294928335171 x[2,1]
   - 0.1788519845644983 x[2,2] - 0.1652425578831312 x[2,3]
   - 0.2965132304299889 x[2,4] + 0.2560294928335171 x[3,1]
   + 0.1788519845644983 x[3,2] + 0.1652425578831312 x[3,3]
   + 0.2965132304299889 x[3,4] >= 0
 findWorstP[3,4]: z + 0.1033627342888644 cashProportion[3]
   - 0.1033627342888644 cashProportion[4] + 0.2560294928335171 x[3,1]
   + 0.1788519845644983 x[3,2] + 0.1652425578831312 x[3,3]
   + 0.2965132304299889 x[3,4] - 0.2560294928335171 x[4,1]
   - 0.1788519845644983 x[4,2] - 0.1652425578831312 x[4,3]
   - 0.2965132304299889 x[4,4] >= 0
 findWorstP[3,5]: z + 0.1033627342888644 cashProportion[3]
   - 0.1033627342888644 cashProportion[5] + 0.2560294928335171 x[3,1]
   + 0.1788519845644983 x[3,2] + 0.1652425578831312 x[3,3]
   + 0.2965132304299889 x[3,4] - 0.2560294928335171 x[5,1]
   - 0.1788519845644983 x[5,2] - 0.1652425578831312 x[5,3]
   - 0.2965132304299889 x[5,4] >= 0
 findWorstP[3,6]: z + 0.1033627342888644 cashProportion[3]
   - 0.1033627342888644 cashProportion[6] + 0.2560294928335171 x[3,1]
   + 0.1788519845644983 x[3,2] + 0.1652425578831312 x[3,3]
   + 0.2965132304299889 x[3,4] - 0.2560294928335171 x[6,1]
   - 0.1788519845644983 x[6,2] - 0.1652425578831312 x[6,3]
   - 0.2965132304299889 x[6,4] >= 0
 findWorstP[4,1]: z - 0.1581777918380259 cashProportion[1]
   + 0.1581777918380259 cashProportion[4] - 0.00358536328166192 x[1,1]
   - 0.4038806284930929 x[1,2] - 0.1472635242012021 x[1,3]
   - 0.2870926921860171 x[1,4] + 0.00358536328166192 x[4,1]
   + 0.4038806284930929 x[4,2] + 0.1472635242012021 x[4,3]
   + 0.2870926921860171 x[4,4] >= 0
 findWorstP[4,2]: z - 0.1581777918380259 cashProportion[2]
   + 0.1581777918380259 cashProportion[4] - 0.00358536328166192 x[2,1]
   - 0.4038806284930929 x[2,2] - 0.1472635242012021 x[2,3]
   - 0.2870926921860171 x[2,4] + 0.00358536328166192 x[4,1]
   + 0.4038806284930929 x[4,2] + 0.1472635242012021 x[4,3]
   + 0.2870926921860171 x[4,4] >= 0
 findWorstP[4,3]: z - 0.1581777918380259 cashProportion[3]
   + 0.1581777918380259 cashProportion[4] - 0.00358536328166192 x[3,1]
   - 0.4038806284930929 x[3,2] - 0.1472635242012021 x[3,3]
   - 0.2870926921860171 x[3,4] + 0.00358536328166192 x[4,1]
   + 0.4038806284930929 x[4,2] + 0.1472635242012021 x[4,3]
   + 0.2870926921860171 x[4,4] >= 0
 findWorstP[4,5]: z + 0.1581777918380259 cashProportion[4]
   - 0.1581777918380259 cashProportion[5] + 0.00358536328166192 x[4,1]
   + 0.4038806284930929 x[4,2] + 0.1472635242012021 x[4,3]
   + 0.2870926921860171 x[4,4] - 0.00358536328166192 x[5,1]
   - 0.4038806284930929 x[5,2] - 0.1472635242012021 x[5,3]
   - 0.2870926921860171 x[5,4] >= 0
 findWorstP[4,6]: z + 0.1581777918380259 cashProportion[4]
   - 0.1581777918380259 cashProportion[6] + 0.00358536328166192 x[4,1]
   + 0.4038806284930929 x[4,2] + 0.1472635242012021 x[4,3]
   + 0.2870926921860171 x[4,4] - 0.00358536328166192 x[6,1]
   - 0.4038806284930929 x[6,2] - 0.1472635242012021 x[6,3]
   - 0.2870926921860171 x[6,4] >= 0
 findWorstP[5,1]: z - 0.1 cashProportion[1] + 0.1 cashProportion[5]
   - 0.0617 x[1,1] - 0.2918 x[1,2] - 0.2160666666666667 x[1,3]
   - 0.3304333333333334 x[1,4] + 0.0617 x[5,1] + 0.2918 x[5,2]
   + 0.2160666666666667 x[5,3] + 0.3304333333333334 x[5,4] >= 0
 findWorstP[5,2]: z - 0.1 cashProportion[2] + 0.1 cashProportion[5]
   - 0.0617 x[2,1] - 0.2918 x[2,2] - 0.2160666666666667 x[2,3]
   - 0.3304333333333334 x[2,4] + 0.0617 x[5,1] + 0.2918 x[5,2]
   + 0.2160666666666667 x[5,3] + 0.3304333333333334 x[5,4] >= 0
 findWorstP[5,3]: z - 0.1 cashProportion[3] + 0.1 cashProportion[5]
   - 0.0617 x[3,1] - 0.2918 x[3,2] - 0.2160666666666667 x[3,3]
   - 0.3304333333333334 x[3,4] + 0.0617 x[5,1] + 0.2918 x[5,2]
   + 0.2160666666666667 x[5,3] + 0.3304333333333334 x[5,4] >= 0
 findWorstP[5,4]: z - 0.1 cashProportion[4] + 0.1 cashProportion[5]
   - 0.0617 x[4,1] - 0.2918 x[4,2] - 0.2160666666666667 x[4,3]
   - 0.3304333333333334 x[4,4] + 0.0617 x[5,1] + 0.2918 x[5,2]
   + 0.2160666666666667 x[5,3] + 0.3304333333333334 x[5,4] >= 0
 findWorstP[5,6]: z + 0.1 cashProportion[5] - 0.1 cashProportion[6]
   + 0.0617 x[5,1] + 0.2918 x[5,2] + 0.2160666666666667 x[5,3]
   + 0.3304333333333334 x[5,4] - 0.0617 x[6,1] - 0.2918 x[6,2]
   - 0.2160666666666667 x[6,3] - 0.3304333333333334 x[6,4] >= 0
 findWorstP[6,1]: z - 0.0984962899730777 cashProportion[1]
   + 0.0984962899730777 cashProportion[6] - 0.2622299560049905 x[1,1]
   - 0.2885284654278022 x[1,2] - 0.2433515004268172 x[1,3]
   - 0.1073937881673124 x[1,4] + 0.2622299560049905 x[6,1]
   + 0.2885284654278022 x[6,2] + 0.2433515004268172 x[6,3]
   + 0.1073937881673124 x[6,4] >= 0
 findWorstP[6,2]: z - 0.0984962899730777 cashProportion[2]
   + 0.0984962899730777 cashProportion[6] - 0.2622299560049905 x[2,1]
   - 0.2885284654278022 x[2,2] - 0.2433515004268172 x[2,3]
   - 0.1073937881673124 x[2,4] + 0.2622299560049905 x[6,1]
   + 0.2885284654278022 x[6,2] + 0.2433515004268172 x[6,3]
   + 0.1073937881673124 x[6,4] >= 0
 findWorstP[6,3]: z - 0.0984962899730777 cashProportion[3]
   + 0.0984962899730777 cashProportion[6] - 0.2622299560049905 x[3,1]
   - 0.2885284654278022 x[3,2] - 0.2433515004268172 x[3,3]
   - 0.1073937881673124 x[3,4] + 0.2622299560049905 x[6,1]
   + 0.2885284654278022 x[6,2] + 0.2433515004268172 x[6,3]
   + 0.1073937881673124 x[6,4] >= 0
 findWorstP[6,4]: z - 0.0984962899730777 cashProportion[4]
   + 0.0984962899730777 cashProportion[6] - 0.2622299560049905 x[4,1]
   - 0.2885284654278022 x[4,2] - 0.2433515004268172 x[4,3]
   - 0.1073937881673124 x[4,4] + 0.2622299560049905 x[6,1]
   + 0.2885284654278022 x[6,2] + 0.2433515004268172 x[6,3]
   + 0.1073937881673124 x[6,4] >= 0
 findWorstP[6,5]: z - 0.0984962899730777 cashProportion[5]
   + 0.0984962899730777 cashProportion[6] - 0.2622299560049905 x[5,1]
   - 0.2885284654278022 x[5,2] - 0.2433515004268172 x[5,3]
   - 0.1073937881673124 x[5,4] + 0.2622299560049905 x[6,1]
   + 0.2885284654278022 x[6,2] + 0.2433515004268172 x[6,3]
   + 0.1073937881673124 x[6,4] >= 0
Bounds
 z <= 1
 -infinity <= cashProportion[1] <= 1
 -infinity <= cashProportion[2] <= 1
 -infinity <= cashProportion[3] <= 1
 -infinity <= cashProportion[4] <= 1
 -infinity <= cashProportion[5] <= 1
 -infinity <= cashProportion[6] <= 1
Binaries
 x[1,1] x[1,2] x[1,3] x[1,4] x[2,1] x[2,2] x[2,3] x[2,4] x[3,1] x[3,2]
 x[3,3] x[3,4] x[4,1] x[4,2] x[4,3] x[4,4] x[5,1] x[5,2] x[5,3] x[5,4]
 x[6,1] x[6,2] x[6,3] x[6,4]
End
