data/mps_files/pEFS/104_5.mps
NAME foo
ROWS
 N  OBJ
 E  allocateEach[1]
 E  allocateEach[2]
 E  allocateEach[3]
 E  allocateEach[4]
 E  allocateAllCash
 G  findWorstP[1,2]
 G  findWorstP[1,3]
 G  findWorstP[1,4]
 G  findWorstP[1,5]
 G  findWorstP[1,6]
 G  findWorstP[2,1]
 G  findWorstP[2,3]
 G  findWorstP[2,4]
 G  findWorstP[2,5]
 G  findWorstP[2,6]
 G  findWorstP[3,1]
 G  findWorstP[3,2]
 G  findWorstP[3,4]
 G  findWorstP[3,5]
 G  findWorstP[3,6]
 G  findWorstP[4,1]
 G  findWorstP[4,2]
 G  findWorstP[4,3]
 G  findWorstP[4,5]
 G  findWorstP[4,6]
 G  findWorstP[5,1]
 G  findWorstP[5,2]
 G  findWorstP[5,3]
 G  findWorstP[5,4]
 G  findWorstP[5,6]
 G  findWorstP[6,1]
 G  findWorstP[6,2]
 G  findWorstP[6,3]
 G  findWorstP[6,4]
 G  findWorstP[6,5]
COLUMNS
    z         OBJ       1
    z         findWorstP[1,2]  1
    z         findWorstP[1,3]  1
    z         findWorstP[1,4]  1
    z         findWorstP[1,5]  1
    z         findWorstP[1,6]  1
    z         findWorstP[2,1]  1
    z         findWorstP[2,3]  1
    z         findWorstP[2,4]  1
    z         findWorstP[2,5]  1
    z         findWorstP[2,6]  1
    z         findWorstP[3,1]  1
    z         findWorstP[3,2]  1
    z         findWorstP[3,4]  1
    z         findWorstP[3,5]  1
    z         findWorstP[3,6]  1
    z         findWorstP[4,1]  1
    z         findWorstP[4,2]  1
    z         findWorstP[4,3]  1
    z         findWorstP[4,5]  1
    z         findWorstP[4,6]  1
    z         findWorstP[5,1]  1
    z         findWorstP[5,2]  1
    z         findWorstP[5,3]  1
    z         findWorstP[5,4]  1
    z         findWorstP[5,6]  1
    z         findWorstP[6,1]  1
    z         findWorstP[6,2]  1
    z         findWorstP[6,3]  1
    z         findWorstP[6,4]  1
    z         findWorstP[6,5]  1
    cashProportion[1]  allocateAllCash  1
    cashProportion[1]  findWorstP[1,2]  8.4585671187300857e-02
    cashProportion[1]  findWorstP[1,3]  8.4585671187300857e-02
    cashProportion[1]  findWorstP[1,4]  8.4585671187300857e-02
    cashProportion[1]  findWorstP[1,5]  8.4585671187300857e-02
    cashProportion[1]  findWorstP[1,6]  8.4585671187300857e-02
    cashProportion[1]  findWorstP[2,1]  -1.1111111111111112e-01
    cashProportion[1]  findWorstP[3,1]  -1.0336273428886437e-01
    cashProportion[1]  findWorstP[4,1]  -1.5817779183802591e-01
    cashProportion[1]  findWorstP[5,1]  -0.1
    cashProportion[1]  findWorstP[6,1]  -9.8496289973077675e-02
    cashProportion[2]  allocateAllCash  1
    cashProportion[2]  findWorstP[1,2]  -8.4585671187300857e-02
    cashProportion[2]  findWorstP[2,1]  1.1111111111111112e-01
    cashProportion[2]  findWorstP[2,3]  1.1111111111111112e-01
    cashProportion[2]  findWorstP[2,4]  1.1111111111111112e-01
    cashProportion[2]  findWorstP[2,5]  1.1111111111111112e-01
    cashProportion[2]  findWorstP[2,6]  1.1111111111111112e-01
    cashProportion[2]  findWorstP[3,2]  -1.0336273428886437e-01
    cashProportion[2]  findWorstP[4,2]  -1.5817779183802591e-01
    cashProportion[2]  findWorstP[5,2]  -0.1
    cashProportion[2]  findWorstP[6,2]  -9.8496289973077675e-02
    cashProportion[3]  allocateAllCash  1
    cashProportion[3]  findWorstP[1,3]  -8.4585671187300857e-02
    cashProportion[3]  findWorstP[2,3]  -1.1111111111111112e-01
    cashProportion[3]  findWorstP[3,1]  1.0336273428886437e-01
    cashProportion[3]  findWorstP[3,2]  1.0336273428886437e-01
    cashProportion[3]  findWorstP[3,4]  1.0336273428886437e-01
    cashProportion[3]  findWorstP[3,5]  1.0336273428886437e-01
    cashProportion[3]  findWorstP[3,6]  1.0336273428886437e-01
    cashProportion[3]  findWorstP[4,3]  -1.5817779183802591e-01
    cashProportion[3]  findWorstP[5,3]  -0.1
    cashProportion[3]  findWorstP[6,3]  -9.8496289973077675e-02
    cashProportion[4]  allocateAllCash  1
    cashProportion[4]  findWorstP[1,4]  -8.4585671187300857e-02
    cashProportion[4]  findWorstP[2,4]  -1.1111111111111112e-01
    cashProportion[4]  findWorstP[3,4]  -1.0336273428886437e-01
    cashProportion[4]  findWorstP[4,1]  1.5817779183802591e-01
    cashProportion[4]  findWorstP[4,2]  1.5817779183802591e-01
    cashProportion[4]  findWorstP[4,3]  1.5817779183802591e-01
    cashProportion[4]  findWorstP[4,5]  1.5817779183802591e-01
    cashProportion[4]  findWorstP[4,6]  1.5817779183802591e-01
    cashProportion[4]  findWorstP[5,4]  -0.1
    cashProportion[4]  findWorstP[6,4]  -9.8496289973077675e-02
    cashProportion[5]  allocateAllCash  1
    cashProportion[5]  findWorstP[1,5]  -8.4585671187300857e-02
    cashProportion[5]  findWorstP[2,5]  -1.1111111111111112e-01
    cashProportion[5]  findWorstP[3,5]  -1.0336273428886437e-01
    cashProportion[5]  findWorstP[4,5]  -1.5817779183802591e-01
    cashProportion[5]  findWorstP[5,1]  0.1
    cashProportion[5]  findWorstP[5,2]  0.1
    cashProportion[5]  findWorstP[5,3]  0.1
    cashProportion[5]  findWorstP[5,4]  0.1
    cashProportion[5]  findWorstP[5,6]  0.1
    cashProportion[5]  findWorstP[6,5]  -9.8496289973077675e-02
    cashProportion[6]  allocateAllCash  1
    cashProportion[6]  findWorstP[1,6]  -8.4585671187300857e-02
    cashProportion[6]  findWorstP[2,6]  -1.1111111111111112e-01
    cashProportion[6]  findWorstP[3,6]  -1.0336273428886437e-01
    cashProportion[6]  findWorstP[4,6]  -1.5817779183802591e-01
    cashProportion[6]  findWorstP[5,6]  -0.1
    cashProportion[6]  findWorstP[6,1]  9.8496289973077675e-02
    cashProportion[6]  findWorstP[6,2]  9.8496289973077675e-02
    cashProportion[6]  findWorstP[6,3]  9.8496289973077675e-02
    cashProportion[6]  findWorstP[6,4]  9.8496289973077675e-02
    cashProportion[6]  findWorstP[6,5]  9.8496289973077675e-02
    MARKER    'MARKER'                 'INTORG'
    x[1,1]    allocateEach[1]  1
    x[1,1]    findWorstP[1,2]  1.4833507203879662e-01
    x[1,1]    findWorstP[1,3]  1.4833507203879662e-01
    x[1,1]    findWorstP[1,4]  1.4833507203879662e-01
    x[1,1]    findWorstP[1,5]  1.4833507203879662e-01
    x[1,1]    findWorstP[1,6]  1.4833507203879662e-01
    x[1,1]    findWorstP[2,1]  -3.2677777777777778e-01
    x[1,1]    findWorstP[3,1]  -2.5602949283351706e-01
    x[1,1]    findWorstP[4,1]  -3.5853632816619206e-03
    x[1,1]    findWorstP[5,1]  -6.1700000000000005e-02
    x[1,1]    findWorstP[6,1]  -2.6222995600499049e-01
    x[1,2]    allocateEach[2]  1
    x[1,2]    findWorstP[1,2]  2.6980009586376064e-01
    x[1,2]    findWorstP[1,3]  2.6980009586376064e-01
    x[1,2]    findWorstP[1,4]  2.6980009586376064e-01
    x[1,2]    findWorstP[1,5]  2.6980009586376064e-01
    x[1,2]    findWorstP[1,6]  2.6980009586376064e-01
    x[1,2]    findWorstP[2,1]  -2.4718518518518520e-01
    x[1,2]    findWorstP[3,1]  -1.7885198456449833e-01
    x[1,2]    findWorstP[4,1]  -4.0388062849309286e-01
    x[1,2]    findWorstP[5,1]  -0.2918
    x[1,2]    findWorstP[6,1]  -2.8852846542780225e-01
    x[1,3]    allocateEach[3]  1
    x[1,3]    findWorstP[1,2]  2.7608763075535003e-01
    x[1,3]    findWorstP[1,3]  2.7608763075535003e-01
    x[1,3]    findWorstP[1,4]  2.7608763075535003e-01
    x[1,3]    findWorstP[1,5]  2.7608763075535003e-01
    x[1,3]    findWorstP[1,6]  2.7608763075535003e-01
    x[1,3]    findWorstP[2,1]  -2.4511111111111117e-01
    x[1,3]    findWorstP[3,1]  -1.6524255788313119e-01
    x[1,3]    findWorstP[4,1]  -1.4726352420120215e-01
    x[1,3]    findWorstP[5,1]  -2.1606666666666668e-01
    x[1,3]    findWorstP[6,1]  -2.4335150042681725e-01
    x[1,4]    allocateEach[4]  1
    x[1,4]    findWorstP[1,2]  2.2119153015479176e-01
    x[1,4]    findWorstP[1,3]  2.2119153015479176e-01
    x[1,4]    findWorstP[1,4]  2.2119153015479176e-01
    x[1,4]    findWorstP[1,5]  2.2119153015479176e-01
    x[1,4]    findWorstP[1,6]  2.2119153015479176e-01
    x[1,4]    findWorstP[2,1]  -6.9814814814814816e-02
    x[1,4]    findWorstP[3,1]  -2.9651323042998895e-01
    x[1,4]    findWorstP[4,1]  -2.8709269218601707e-01
    x[1,4]    findWorstP[5,1]  -3.3043333333333336e-01
    x[1,4]    findWorstP[6,1]  -1.0739378816731236e-01
    x[2,1]    allocateEach[1]  1
    x[2,1]    findWorstP[1,2]  -1.4833507203879662e-01
    x[2,1]    findWorstP[2,1]  3.2677777777777778e-01
    x[2,1]    findWorstP[2,3]  3.2677777777777778e-01
    x[2,1]    findWorstP[2,4]  3.2677777777777778e-01
    x[2,1]    findWorstP[2,5]  3.2677777777777778e-01
    x[2,1]    findWorstP[2,6]  3.2677777777777778e-01
    x[2,1]    findWorstP[3,2]  -2.5602949283351706e-01
    x[2,1]    findWorstP[4,2]  -3.5853632816619206e-03
    x[2,1]    findWorstP[5,2]  -6.1700000000000005e-02
    x[2,1]    findWorstP[6,2]  -2.6222995600499049e-01
    x[2,2]    allocateEach[2]  1
    x[2,2]    findWorstP[1,2]  -2.6980009586376064e-01
    x[2,2]    findWorstP[2,1]  2.4718518518518520e-01
    x[2,2]    findWorstP[2,3]  2.4718518518518520e-01
    x[2,2]    findWorstP[2,4]  2.4718518518518520e-01
    x[2,2]    findWorstP[2,5]  2.4718518518518520e-01
    x[2,2]    findWorstP[2,6]  2.4718518518518520e-01
    x[2,2]    findWorstP[3,2]  -1.7885198456449833e-01
    x[2,2]    findWorstP[4,2]  -4.0388062849309286e-01
    x[2,2]    findWorstP[5,2]  -0.2918
    x[2,2]    findWorstP[6,2]  -2.8852846542780225e-01
    x[2,3]    allocateEach[3]  1
    x[2,3]    findWorstP[1,2]  -2.7608763075535003e-01
    x[2,3]    findWorstP[2,1]  2.4511111111111117e-01
    x[2,3]    findWorstP[2,3]  2.4511111111111117e-01
    x[2,3]    findWorstP[2,4]  2.4511111111111117e-01
    x[2,3]    findWorstP[2,5]  2.4511111111111117e-01
    x[2,3]    findWorstP[2,6]  2.4511111111111117e-01
    x[2,3]    findWorstP[3,2]  -1.6524255788313119e-01
    x[2,3]    findWorstP[4,2]  -1.4726352420120215e-01
    x[2,3]    findWorstP[5,2]  -2.1606666666666668e-01
    x[2,3]    findWorstP[6,2]  -2.4335150042681725e-01
    x[2,4]    allocateEach[4]  1
    x[2,4]    findWorstP[1,2]  -2.2119153015479176e-01
    x[2,4]    findWorstP[2,1]  6.9814814814814816e-02
    x[2,4]    findWorstP[2,3]  6.9814814814814816e-02
    x[2,4]    findWorstP[2,4]  6.9814814814814816e-02
    x[2,4]    findWorstP[2,5]  6.9814814814814816e-02
    x[2,4]    findWorstP[2,6]  6.9814814814814816e-02
    x[2,4]    findWorstP[3,2]  -2.9651323042998895e-01
    x[2,4]    findWorstP[4,2]  -2.8709269218601707e-01
    x[2,4]    findWorstP[5,2]  -3.3043333333333336e-01
    x[2,4]    findWorstP[6,2]  -1.0739378816731236e-01
    x[3,1]    allocateEach[1]  1
    x[3,1]    findWorstP[1,3]  -1.4833507203879662e-01
    x[3,1]    findWorstP[2,3]  -3.2677777777777778e-01
    x[3,1]    findWorstP[3,1]  2.5602949283351706e-01
    x[3,1]    findWorstP[3,2]  2.5602949283351706e-01
    x[3,1]    findWorstP[3,4]  2.5602949283351706e-01
    x[3,1]    findWorstP[3,5]  2.5602949283351706e-01
    x[3,1]    findWorstP[3,6]  2.5602949283351706e-01
    x[3,1]    findWorstP[4,3]  -3.5853632816619206e-03
    x[3,1]    findWorstP[5,3]  -6.1700000000000005e-02
    x[3,1]    findWorstP[6,3]  -2.6222995600499049e-01
    x[3,2]    allocateEach[2]  1
    x[3,2]    findWorstP[1,3]  -2.6980009586376064e-01
    x[3,2]    findWorstP[2,3]  -2.4718518518518520e-01
    x[3,2]    findWorstP[3,1]  1.7885198456449833e-01
    x[3,2]    findWorstP[3,2]  1.7885198456449833e-01
    x[3,2]    findWorstP[3,4]  1.7885198456449833e-01
    x[3,2]    findWorstP[3,5]  1.7885198456449833e-01
    x[3,2]    findWorstP[3,6]  1.7885198456449833e-01
    x[3,2]    findWorstP[4,3]  -4.0388062849309286e-01
    x[3,2]    findWorstP[5,3]  -0.2918
    x[3,2]    findWorstP[6,3]  -2.8852846542780225e-01
    x[3,3]    allocateEach[3]  1
    x[3,3]    findWorstP[1,3]  -2.7608763075535003e-01
    x[3,3]    findWorstP[2,3]  -2.4511111111111117e-01
    x[3,3]    findWorstP[3,1]  1.6524255788313119e-01
    x[3,3]    findWorstP[3,2]  1.6524255788313119e-01
    x[3,3]    findWorstP[3,4]  1.6524255788313119e-01
    x[3,3]    findWorstP[3,5]  1.6524255788313119e-01
    x[3,3]    findWorstP[3,6]  1.6524255788313119e-01
    x[3,3]    findWorstP[4,3]  -1.4726352420120215e-01
    x[3,3]    findWorstP[5,3]  -2.1606666666666668e-01
    x[3,3]    findWorstP[6,3]  -2.4335150042681725e-01
    x[3,4]    allocateEach[4]  1
    x[3,4]    findWorstP[1,3]  -2.2119153015479176e-01
    x[3,4]    findWorstP[2,3]  -6.9814814814814816e-02
    x[3,4]    findWorstP[3,1]  2.9651323042998895e-01
    x[3,4]    findWorstP[3,2]  2.9651323042998895e-01
    x[3,4]    findWorstP[3,4]  2.9651323042998895e-01
    x[3,4]    findWorstP[3,5]  2.9651323042998895e-01
    x[3,4]    findWorstP[3,6]  2.9651323042998895e-01
    x[3,4]    findWorstP[4,3]  -2.8709269218601707e-01
    x[3,4]    findWorstP[5,3]  -3.3043333333333336e-01
    x[3,4]    findWorstP[6,3]  -1.0739378816731236e-01
    x[4,1]    allocateEach[1]  1
    x[4,1]    findWorstP[1,4]  -1.4833507203879662e-01
    x[4,1]    findWorstP[2,4]  -3.2677777777777778e-01
    x[4,1]    findWorstP[3,4]  -2.5602949283351706e-01
    x[4,1]    findWorstP[4,1]  3.5853632816619206e-03
    x[4,1]    findWorstP[4,2]  3.5853632816619206e-03
    x[4,1]    findWorstP[4,3]  3.5853632816619206e-03
    x[4,1]    findWorstP[4,5]  3.5853632816619206e-03
    x[4,1]    findWorstP[4,6]  3.5853632816619206e-03
    x[4,1]    findWorstP[5,4]  -6.1700000000000005e-02
    x[4,1]    findWorstP[6,4]  -2.6222995600499049e-01
    x[4,2]    allocateEach[2]  1
    x[4,2]    findWorstP[1,4]  -2.6980009586376064e-01
    x[4,2]    findWorstP[2,4]  -2.4718518518518520e-01
    x[4,2]    findWorstP[3,4]  -1.7885198456449833e-01
    x[4,2]    findWorstP[4,1]  4.0388062849309286e-01
    x[4,2]    findWorstP[4,2]  4.0388062849309286e-01
    x[4,2]    findWorstP[4,3]  4.0388062849309286e-01
    x[4,2]    findWorstP[4,5]  4.0388062849309286e-01
    x[4,2]    findWorstP[4,6]  4.0388062849309286e-01
    x[4,2]    findWorstP[5,4]  -0.2918
    x[4,2]    findWorstP[6,4]  -2.8852846542780225e-01
    x[4,3]    allocateEach[3]  1
    x[4,3]    findWorstP[1,4]  -2.7608763075535003e-01
    x[4,3]    findWorstP[2,4]  -2.4511111111111117e-01
    x[4,3]    findWorstP[3,4]  -1.6524255788313119e-01
    x[4,3]    findWorstP[4,1]  1.4726352420120215e-01
    x[4,3]    findWorstP[4,2]  1.4726352420120215e-01
    x[4,3]    findWorstP[4,3]  1.4726352420120215e-01
    x[4,3]    findWorstP[4,5]  1.4726352420120215e-01
    x[4,3]    findWorstP[4,6]  1.4726352420120215e-01
    x[4,3]    findWorstP[5,4]  -2.1606666666666668e-01
    x[4,3]    findWorstP[6,4]  -2.4335150042681725e-01
    x[4,4]    allocateEach[4]  1
    x[4,4]    findWorstP[1,4]  -2.2119153015479176e-01
    x[4,4]    findWorstP[2,4]  -6.9814814814814816e-02
    x[4,4]    findWorstP[3,4]  -2.9651323042998895e-01
    x[4,4]    findWorstP[4,1]  2.8709269218601707e-01
    x[4,4]    findWorstP[4,2]  2.8709269218601707e-01
    x[4,4]    findWorstP[4,3]  2.8709269218601707e-01
    x[4,4]    findWorstP[4,5]  2.8709269218601707e-01
    x[4,4]    findWorstP[4,6]  2.8709269218601707e-01
    x[4,4]    findWorstP[5,4]  -3.3043333333333336e-01
    x[4,4]    findWorstP[6,4]  -1.0739378816731236e-01
    x[5,1]    allocateEach[1]  1
    x[5,1]    findWorstP[1,5]  -1.4833507203879662e-01
    x[5,1]    findWorstP[2,5]  -3.2677777777777778e-01
    x[5,1]    findWorstP[3,5]  -2.5602949283351706e-01
    x[5,1]    findWorstP[4,5]  -3.5853632816619206e-03
    x[5,1]    findWorstP[5,1]  6.1700000000000005e-02
    x[5,1]    findWorstP[5,2]  6.1700000000000005e-02
    x[5,1]    findWorstP[5,3]  6.1700000000000005e-02
    x[5,1]    findWorstP[5,4]  6.1700000000000005e-02
    x[5,1]    findWorstP[5,6]  6.1700000000000005e-02
    x[5,1]    findWorstP[6,5]  -2.6222995600499049e-01
    x[5,2]    allocateEach[2]  1
    x[5,2]    findWorstP[1,5]  -2.6980009586376064e-01
    x[5,2]    findWorstP[2,5]  -2.4718518518518520e-01
    x[5,2]    findWorstP[3,5]  -1.7885198456449833e-01
    x[5,2]    findWorstP[4,5]  -4.0388062849309286e-01
    x[5,2]    findWorstP[5,1]  0.2918
    x[5,2]    findWorstP[5,2]  0.2918
    x[5,2]    findWorstP[5,3]  0.2918
    x[5,2]    findWorstP[5,4]  0.2918
    x[5,2]    findWorstP[5,6]  0.2918
    x[5,2]    findWorstP[6,5]  -2.8852846542780225e-01
    x[5,3]    allocateEach[3]  1
    x[5,3]    findWorstP[1,5]  -2.7608763075535003e-01
    x[5,3]    findWorstP[2,5]  -2.4511111111111117e-01
    x[5,3]    findWorstP[3,5]  -1.6524255788313119e-01
    x[5,3]    findWorstP[4,5]  -1.4726352420120215e-01
    x[5,3]    findWorstP[5,1]  2.1606666666666668e-01
    x[5,3]    findWorstP[5,2]  2.1606666666666668e-01
    x[5,3]    findWorstP[5,3]  2.1606666666666668e-01
    x[5,3]    findWorstP[5,4]  2.1606666666666668e-01
    x[5,3]    findWorstP[5,6]  2.1606666666666668e-01
    x[5,3]    findWorstP[6,5]  -2.4335150042681725e-01
    x[5,4]    allocateEach[4]  1
    x[5,4]    findWorstP[1,5]  -2.2119153015479176e-01
    x[5,4]    findWorstP[2,5]  -6.9814814814814816e-02
    x[5,4]    findWorstP[3,5]  -2.9651323042998895e-01
    x[5,4]    findWorstP[4,5]  -2.8709269218601707e-01
    x[5,4]    findWorstP[5,1]  3.3043333333333336e-01
    x[5,4]    findWorstP[5,2]  3.3043333333333336e-01
    x[5,4]    findWorstP[5,3]  3.3043333333333336e-01
    x[5,4]    findWorstP[5,4]  3.3043333333333336e-01
    x[5,4]    findWorstP[5,6]  3.3043333333333336e-01
    x[5,4]    findWorstP[6,5]  -1.0739378816731236e-01
    x[6,1]    allocateEach[1]  1
    x[6,1]    findWorstP[1,6]  -1.4833507203879662e-01
    x[6,1]    findWorstP[2,6]  -3.2677777777777778e-01
    x[6,1]    findWorstP[3,6]  -2.5602949283351706e-01
    x[6,1]    findWorstP[4,6]  -3.5853632816619206e-03
    x[6,1]    findWorstP[5,6]  -6.1700000000000005e-02
    x[6,1]    findWorstP[6,1]  2.6222995600499049e-01
    x[6,1]    findWorstP[6,2]  2.6222995600499049e-01
    x[6,1]    findWorstP[6,3]  2.6222995600499049e-01
    x[6,1]    findWorstP[6,4]  2.6222995600499049e-01
    x[6,1]    findWorstP[6,5]  2.6222995600499049e-01
    x[6,2]    allocateEach[2]  1
    x[6,2]    findWorstP[1,6]  -2.6980009586376064e-01
    x[6,2]    findWorstP[2,6]  -2.4718518518518520e-01
    x[6,2]    findWorstP[3,6]  -1.7885198456449833e-01
    x[6,2]    findWorstP[4,6]  -4.0388062849309286e-01
    x[6,2]    findWorstP[5,6]  -0.2918
    x[6,2]    findWorstP[6,1]  2.8852846542780225e-01
    x[6,2]    findWorstP[6,2]  2.8852846542780225e-01
    x[6,2]    findWorstP[6,3]  2.8852846542780225e-01
    x[6,2]    findWorstP[6,4]  2.8852846542780225e-01
    x[6,2]    findWorstP[6,5]  2.8852846542780225e-01
    x[6,3]    allocateEach[3]  1
    x[6,3]    findWorstP[1,6]  -2.7608763075535003e-01
    x[6,3]    findWorstP[2,6]  -2.4511111111111117e-01
    x[6,3]    findWorstP[3,6]  -1.6524255788313119e-01
    x[6,3]    findWorstP[4,6]  -1.4726352420120215e-01
    x[6,3]    findWorstP[5,6]  -2.1606666666666668e-01
    x[6,3]    findWorstP[6,1]  2.4335150042681725e-01
    x[6,3]    findWorstP[6,2]  2.4335150042681725e-01
    x[6,3]    findWorstP[6,3]  2.4335150042681725e-01
    x[6,3]    findWorstP[6,4]  2.4335150042681725e-01
    x[6,3]    findWorstP[6,5]  2.4335150042681725e-01
    x[6,4]    allocateEach[4]  1
    x[6,4]    findWorstP[1,6]  -2.2119153015479176e-01
    x[6,4]    findWorstP[2,6]  -6.9814814814814816e-02
    x[6,4]    findWorstP[3,6]  -2.9651323042998895e-01
    x[6,4]    findWorstP[4,6]  -2.8709269218601707e-01
    x[6,4]    findWorstP[5,6]  -3.3043333333333336e-01
    x[6,4]    findWorstP[6,1]  1.0739378816731236e-01
    x[6,4]    findWorstP[6,2]  1.0739378816731236e-01
    x[6,4]    findWorstP[6,3]  1.0739378816731236e-01
    x[6,4]    findWorstP[6,4]  1.0739378816731236e-01
    x[6,4]    findWorstP[6,5]  1.0739378816731236e-01
    MARKER    'MARKER'                 'INTEND'
RHS
    RHS1      allocateEach[1]  1
    RHS1      allocateEach[2]  1
    RHS1      allocateEach[3]  1
    RHS1      allocateEach[4]  1
    RHS1      allocateAllCash  1
BOUNDS
 UP BND1      z         1
 MI BND1      cashProportion[1]
 UP BND1      cashProportion[1]  1
 MI BND1      cashProportion[2]
 UP BND1      cashProportion[2]  1
 MI BND1      cashProportion[3]
 UP BND1      cashProportion[3]  1
 MI BND1      cashProportion[4]
 UP BND1      cashProportion[4]  1
 MI BND1      cashProportion[5]
 UP BND1      cashProportion[5]  1
 MI BND1      cashProportion[6]
 UP BND1      cashProportion[6]  1
 BV BND1      x[1,1]  
 BV BND1      x[1,2]  
 BV BND1      x[1,3]  
 BV BND1      x[1,4]  
 BV BND1      x[2,1]  
 BV BND1      x[2,2]  
 BV BND1      x[2,3]  
 BV BND1      x[2,4]  
 BV BND1      x[3,1]  
 BV BND1      x[3,2]  
 BV BND1      x[3,3]  
 BV BND1      x[3,4]  
 BV BND1      x[4,1]  
 BV BND1      x[4,2]  
 BV BND1      x[4,3]  
 BV BND1      x[4,4]  
 BV BND1      x[5,1]  
 BV BND1      x[5,2]  
 BV BND1      x[5,3]  
 BV BND1      x[5,4]  
 BV BND1      x[6,1]  
 BV BND1      x[6,2]  
 BV BND1      x[6,3]  
 BV BND1      x[6,4]  
ENDATA
